Traveling Salesman Problem/TSP_generados/Aleatorio1621103317_9.tsp
NAME: Aleatorio1621103317_9.tsp
COMMENT: Randomly generated scenario
TYPE: TSP
DIMENSION: 9
EDGE_WEIGHT_TYPE: ATT
NODE_COORD_SECTION
1 46.66 28.69
2 23.58 47.4
3 11.65 24.61
4 12.3 47.21
5 22.02 22.57
6 18.48 24.37
7 5.24 47.3
8 21.26 4.88
9 16.75 0.05
