Traveling Salesman Problem/TSP_generados/Aleatorio1621103317_9.opt.tour
NAME: Aleatorio1621103317_9.opt.tour
COMMENT: Optimal solution for Aleatorio1621103317_9 (146.98844344969928)
TYPE: TOUR
DIMENSION: 9
TOUR_SECTION
1 8 9 5 6 3 7 4 2
-1
EOF
